342,160
778,336
1036,350
1155,331
1062,787
773,691
789,619
804,575
681,76
512,283
441,284
695,318
1036,350
826,511
641,486
624,424
745,207
681,76
598,150
561,406
641,486
607,634
570,748
620,791
470,697
487,547
441,284
342,160
361,569
382,818
607,634
718,643
1093,705
804,575
830,112
695,318
624,424
561,406
487,547
532,700
644,520
681,466
672,434
826,511
787,512
644,520
366,635
427,660
470,697
597,490
563,424
533,383
563,424
